(declare-fun bvlambda_3_ () (_ BitVec 9))
(declare-fun a114 () (Array (_ BitVec 1) (_ BitVec 6)))
(assert
(let (($e35 (_ bv0  6)))
(let (($e123 (bvult        bvlambda_3_(bvnot bvlambda_3_))))
(let (($e125 (store a114 false $e35)))
(let (($e126 (select $e125 (not   $e123))))
                  (bvult $e35  $e126)
                                                                                                                                                                                                                                                                                                                                                                                                                                                                                                                                                                                                                                                                                                                                                                                                                                                                                                                                                                                                                                                                                                                                                                                                                         )) )                                                                  )                                  )
